NAME: binpacking2d-09.bp2d
COMMENT: gcut9
NB_ITEMS: 10
BIN_WIDTH: 1000
BIN_HEIGHT: 1000

ITEMS [id width height]:
1 310 426
2 673 468
3 426 463
4 325 498
5 555 540
6 292 455
7 343 341
8 362 491
9 305 688
10 459 607